Wheel graph
SECTION Graph
Nodes 8
Edges 14
E 1 2 1
E 1 3 2
E 1 4 2
E 1 5 1
E 1 6 2
E 1 7 1
E 1 8 2
E 2 3 2
E 4 3 2
E 4 5 2
E 5 6 2
E 6 7 2
E 7 8 2
E 2 8 2
END

SECTION Terminals
Terminals 3
T 2
T 5
T 7
END

EOF